
  22   10
  10   10   10   10   10   10   10   10   10   10

   0   0   0   0   0   0   0   0   0   0   0   8 2 4 6 7 8 11 12 13 
  10  10  10  10  10  10  10  10  10  10  10   6 21 20 19 16 15 3 
   9  10  10  10  10  10  10  10  10  10  10   1 5 
   6  10  10  10  10  10  10  10  10  10  10   3 16 15 10 
   8  10  10  10  10  10  10  10  10  10  10   2 17 9 
   1  10  10  10  10  10  10  10  10  10  10   3 19 18 15 
  10  10  10  10  10  10  10  10  10  10  10   2 18 15 
   3  10  10  10  10  10  10  10  10  10  10   2 16 14 
   5  10  10  10  10  10  10  10  10  10  10   1 10 
   5  10  10  10  10  10  10  10  10  10  10   1 14 
   6  10  10  10  10  10  10  10  10  10  10   1 16 
   7  10  10  10  10  10  10  10  10  10  10   1 15 
   9  10  10  10  10  10  10  10  10  10  10   1 15 
   3  10  10  10  10  10  10  10  10  10  10   1 22
   5  10  10  10  10  10  10  10  10  10  10   1 22
   8  10  10  10  10  10  10  10  10  10  10   1 22
   7  10  10  10  10  10  10  10  10  10  10   1 22
   5  10  10  10  10  10  10  10  10  10  10   1 22
   8  10  10  10  10  10  10  10  10  10  10   1 22
   2  10  10  10  10  10  10  10  10  10  10   1 22
   2  10  10  10  10  10  10  10  10  10  10   1 22
   0   0   0   0   0   0   0   0   0   0   0   0 
